/*********************************************
 * OPL 12.6.0.0 Data
 * Author: QZ61P8
 * Creation Date: 10.07.2014 at 08:59:12
 *********************************************/


nNetworks = 16;
nTime = 100;
nInterfaceTypes = 2;
nFlows = [nRequests];

//channel model: generated Wed Dec 07 11:42:19 CET 2016
availChunkBuckets = //[Networks, Time]  
[
	[66, 56, 55, 47, 57, 53, 44, 54, 55, 65, 63, 53, 55, 64, 64, 67, 66, 52, 48, 69, 56, 51, 65, 52, 46, 56, 56, 55, 68, 71, 80, 85, 71, 65, 67, 65, 60, 72, 51, 43, 38, 50, 47, 64, 66, 62, 42, 38, 58, 57, 50, 43, 62, 62, 61, 54, 55, 66, 62, 43, 38, 52, 43, 56, 52, 51, 54, 63, 59, 46, 57, 49, 38, 50, 70, 56, 55, 59, 74, 74, 66, 56, 66, 60, 48, 52, 69, 65, 74, 50, 40, 56, 59, 56, 64, 58, 70, 63, 50, 54],
	[0, 0, 0, 0, 0, 0, 0, 0, 0, 0, 0, 0, 0, 0, 0, 0, 0, 0, 0, 10, 22, 35, 40, 51, 71, 79, 83, 67, 71, 62, 55, 48, 73, 54, 48, 27, 23, 13, 0, 0, 0, 0, 0, 0, 0, 0, 0, 0, 0, 0, 0, 0, 0, 0, 0, 0, 0, 0, 0, 0, 0, 0, 0, 0, 0, 0, 0, 0, 0, 0, 0, 0, 0, 0, 0, 0, 0, 0, 0, 0, 0, 0, 0, 0, 0, 0, 0, 0, 0, 0, 0, 0, 0, 0, 0, 0, 0, 0, 0, 0],
	[0, 0, 0, 0, 0, 0, 0, 0, 0, 0, 0, 0, 0, 0, 0, 0, 0, 0, 0, 0, 0, 0, 0, 38, 26, 29, 0, 0, 0, 0, 0, 0, 0, 0, 0, 0, 0, 0, 0, 0, 0, 0, 0, 0, 0, 0, 0, 0, 0, 0, 0, 0, 0, 0, 0, 0, 0, 0, 0, 0, 0, 0, 0, 0, 0, 0, 0, 0, 0, 0, 0, 0, 0, 0, 0, 0, 0, 0, 0, 0, 0, 0, 0, 0, 0, 0, 0, 0, 0, 0, 0, 0, 0, 0, 0, 0, 0, 0, 0, 0],
	[0, 0, 0, 0, 0, 0, 0, 0, 0, 0, 0, 25, 44, 60, 72, 102, 106, 106, 94, 102, 100, 62, 23, 0, 0, 0, 0, 0, 0, 0, 0, 0, 0, 0, 0, 0, 0, 0, 0, 0, 0, 0, 0, 0, 0, 0, 0, 0, 0, 0, 0, 0, 0, 0, 0, 0, 0, 0, 0, 0, 0, 0, 0, 0, 0, 0, 0, 0, 0, 0, 0, 0, 0, 0, 0, 0, 0, 0, 0, 0, 0, 0, 0, 0, 0, 0, 0, 0, 0, 0, 0, 0, 0, 0, 0, 0, 0, 0, 0, 0],
	[26, 29, 21, 17, 26, 26, 34, 27, 25, 21, 18, 28, 19, 29, 27, 23, 22, 24, 19, 17, 29, 22, 17, 16, 24, 23, 25, 28, 24, 22, 18, 25, 26, 29, 26, 29, 33, 34, 29, 30, 30, 29, 26, 18, 30, 23, 20, 22, 23, 30, 33, 24, 22, 27, 24, 25, 24, 28, 28, 34, 35, 36, 38, 35, 25, 21, 22, 25, 24, 25, 22, 17, 22, 30, 27, 26, 25, 25, 28, 27, 25, 23, 27, 26, 20, 26, 21, 28, 25, 26, 30, 32, 29, 27, 23, 25, 24, 22, 23, 23],
	[0, 0, 0, 0, 0, 0, 0, 0, 0, 0, 0, 0, 0, 0, 0, 0, 0, 0, 0, 0, 0, 0, 0, 0, 0, 0, 0, 0, 0, 0, 0, 0, 0, 0, 0, 0, 0, 0, 0, 0, 0, 0, 0, 0, 0, 0, 0, 20, 25, 50, 64, 81, 90, 87, 88, 74, 65, 47, 39, 22, 0, 0, 0, 0, 0, 0, 0, 0, 0, 0, 0, 0, 0, 0, 0, 0, 0, 0, 0, 0, 0, 0, 0, 0, 0, 0, 0, 0, 0, 0, 0, 0, 0, 0, 0, 0, 0, 0, 0, 0],
	[0, 0, 0, 0, 0, 0, 0, 0, 0, 0, 0, 0, 0, 0, 0, 0, 0, 0, 0, 0, 0, 0, 0, 0, 0, 0, 0, 0, 0, 0, 0, 0, 0, 0, 0, 0, 0, 0, 0, 0, 0, 0, 0, 0, 0, 0, 0, 18, 42, 81, 124, 116, 84, 87, 87, 64, 104, 113, 94, 115, 110, 74, 38, 14, 0, 0, 0, 0, 0, 0, 0, 0, 0, 0, 0, 0, 0, 0, 0, 0, 0, 0, 0, 0, 0, 0, 0, 0, 0, 0, 0, 0, 0, 0, 0, 0, 0, 0, 0, 0],
	[0, 0, 0, 0, 0, 0, 0, 0, 0, 31, 29, 34, 39, 30, 0, 0, 0, 0, 0, 0, 0, 0, 0, 0, 0, 0, 0, 0, 0, 0, 0, 0, 0, 0, 0, 0, 0, 0, 0, 0, 0, 0, 0, 0, 0, 0, 0, 0, 0, 0, 0, 0, 0, 0, 0, 0, 0, 0, 0, 0, 0, 0, 0, 0, 0, 0, 0, 0, 0, 0, 0, 0, 0, 0, 0, 0, 0, 0, 0, 0, 0, 0, 0, 0, 0, 0, 0, 0, 0, 0, 0, 0, 0, 0, 0, 0, 0, 0, 0, 0],
	[64, 77, 98, 97, 81, 96, 64, 72, 56, 77, 64, 90, 114, 92, 112, 91, 94, 66, 91, 113, 118, 125, 114, 100, 83, 63, 79, 97, 112, 86, 111, 109, 108, 97, 85, 76, 80, 72, 81, 92, 110, 120, 103, 109, 84, 58, 73, 70, 60, 92, 106, 107, 88, 85, 111, 123, 116, 105, 118, 86, 60, 70, 87, 78, 74, 93, 107, 102, 67, 73, 102, 77, 92, 91, 84, 68, 70, 99, 70, 55, 73, 85, 82, 70, 89, 91, 82, 91, 108, 114, 93, 92, 78, 81, 62, 60, 91, 97, 94, 99],
	[0, 0, 0, 0, 0, 0, 0, 0, 0, 0, 0, 0, 0, 0, 0, 0, 0, 0, 0, 0, 0, 0, 0, 0, 0, 0, 0, 0, 0, 0, 0, 0, 0, 0, 0, 0, 0, 0, 0, 0, 0, 0, 0, 0, 0, 0, 0, 0, 5, 14, 15, 21, 29, 32, 22, 22, 18, 23, 33, 30, 40, 44, 38, 39, 33, 26, 30, 19, 15, 12, 7, 3, 0, 0, 0, 0, 0, 0, 0, 0, 0, 0, 0, 0, 0, 0, 0, 0, 0, 0, 0, 0, 0, 0, 0, 0, 0, 0, 0, 0],
	[0, 0, 0, 0, 0, 0, 0, 0, 0, 0, 0, 0, 0, 0, 0, 0, 0, 0, 0, 0, 0, 0, 0, 0, 0, 0, 0, 0, 0, 0, 0, 0, 0, 0, 0, 0, 0, 0, 0, 0, 0, 0, 0, 0, 0, 0, 0, 0, 0, 0, 0, 0, 0, 0, 0, 0, 0, 0, 0, 0, 0, 0, 0, 0, 0, 0, 0, 0, 0, 0, 0, 0, 0, 0, 0, 0, 0, 0, 26, 29, 36, 34, 26, 28, 0, 0, 0, 0, 0, 0, 0, 0, 0, 0, 0, 0, 0, 0, 0, 0],
	[0, 0, 0, 0, 0, 0, 0, 0, 0, 0, 0, 0, 0, 0, 0, 0, 0, 0, 0, 0, 0, 0, 0, 0, 0, 0, 0, 0, 0, 0, 0, 0, 0, 0, 0, 0, 0, 0, 0, 0, 0, 0, 0, 0, 0, 0, 0, 0, 0, 0, 0, 0, 0, 0, 0, 0, 8, 15, 15, 21, 35, 29, 25, 33, 27, 29, 28, 27, 23, 21, 19, 16, 14, 7, 0, 0, 0, 0, 0, 0, 0, 0, 0, 0, 0, 0, 0, 0, 0, 0, 0, 0, 0, 0, 0, 0, 0, 0, 0, 0],
	[58, 61, 53, 35, 35, 52, 50, 37, 41, 47, 55, 56, 47, 42, 37, 43, 34, 42, 43, 43, 48, 42, 52, 48, 51, 60, 50, 52, 50, 48, 55, 55, 66, 61, 65, 57, 48, 59, 48, 53, 54, 50, 58, 55, 38, 52, 46, 49, 62, 70, 72, 59, 43, 30, 37, 57, 38, 52, 49, 45, 43, 46, 50, 34, 52, 45, 46, 59, 50, 53, 52, 51, 50, 44, 47, 38, 58, 46, 45, 50, 55, 49, 59, 55, 56, 50, 57, 61, 53, 51, 41, 53, 45, 44, 51, 40, 52, 64, 52, 39],
	[0, 0, 0, 0, 0, 0, 0, 0, 0, 0, 0, 0, 0, 0, 0, 0, 0, 0, 24, 39, 66, 73, 104, 108, 115, 99, 82, 95, 106, 106, 113, 74, 98, 113, 96, 93, 63, 42, 20, 0, 0, 0, 0, 0, 0, 0, 0, 0, 0, 0, 0, 0, 0, 0, 0, 0, 0, 0, 0, 0, 0, 0, 0, 0, 0, 0, 0, 0, 0, 0, 0, 0, 0, 0, 0, 0, 0, 0, 0, 0, 0, 0, 0, 0, 0, 0, 0, 0, 0, 0, 0, 0, 0, 0, 0, 0, 0, 0, 0, 0],
	[0, 0, 0, 0, 0, 0, 0, 0, 0, 0, 0, 0, 0, 0, 0, 0, 0, 0, 0, 0, 0, 0, 0, 0, 0, 0, 0, 0, 0, 0, 0, 0, 0, 0, 0, 0, 0, 0, 0, 0, 0, 0, 0, 0, 0, 0, 0, 0, 0, 0, 0, 0, 0, 0, 0, 0, 0, 0, 0, 0, 0, 0, 0, 0, 0, 0, 0, 0, 0, 12, 21, 28, 53, 78, 54, 67, 81, 68, 69, 69, 77, 75, 78, 59, 39, 23, 12, 0, 0, 0, 0, 0, 0, 0, 0, 0, 0, 0, 0, 0],
	[0, 0, 0, 0, 0, 0, 0, 0, 0, 0, 0, 0, 0, 0, 0, 0, 0, 0, 0, 0, 0, 0, 0, 0, 0, 0, 0, 0, 0, 0, 0, 0, 0, 0, 0, 0, 0, 0, 0, 0, 9, 19, 31, 27, 32, 31, 25, 30, 28, 40, 44, 25, 10, 0, 0, 0, 0, 0, 0, 0, 0, 0, 0, 0, 0, 0, 0, 0, 0, 0, 0, 0, 0, 0, 0, 0, 0, 0, 0, 0, 0, 0, 0, 0, 0, 0, 0, 0, 0, 0, 0, 0, 0, 0, 0, 0, 0, 0, 0, 0]
];
	
network_cost = //[Networks] 
	[8, 1, 1, 2, 5, 2, 3, 1, 8, 3, 2, 1, 4, 2, 2, 3];				//static cost per channel (change later to more realistic model)
network_lcy =
	[3, 5, 2, 2, 7, 1, 5, 3, 5, 2, 5, 4, 10, 2, 0, 1];
network_jit =
	[1, 5, 2, 6, 6, 10, 9, 6, 0, 6, 7, 6, 1, 5, 5, 10];	

network_type= //[Networks] 				//each channel has a specific type; e.g. WiFi, LTE..
	[2, 1, 1, 1, 2, 1, 1, 1, 2, 1, 1, 1, 2, 1, 1, 1];		
nClientInterfaces = //[InterfaceTypes]
	[1, 1];	

//requests: generated [trafficGenTime]
nChunks = 				[[chunks]];		//[Flows]		
deadline= 				[[deadline]];		//[Flows] 
prefStartTime = 		[[startTime]];		//[Flows]
tpMaxWindow = 			[[windowMax]];		//[Flows]	//0 says not relevant/no maximum transfer rate; upper throughput limit
tpMaxChunks = 			[[throughputMax]]; 		//maximum of chunks in above specified time frame
tpMinWindow = 			[[windowMin]];		//[Flows]  //1000 says not relevant / no minimum transfer rate
tpMinChunks = 			[[throughputMin]]; 		//minimum of chunks in above specified time frame; lower throughput limit
latency = 				[[reqLatency]];	
jitter = 				[[reqJitter]];

hysteresis = 500;
tpMinAmp = [tpMinAmp];
importance = [
	[[impDeadline]],	//deadline
	[[impStartTime]],	//start time
	[[impThroughputMax]],	//throughput upper bound
	[[impThroughputMin]],	//throughput lower bound
	[[impUnscheduled]],	//unsched
	[[impLatency]],	//latency
	[[impJitter]]	//jitter
]; //[ImportanceTypes, Flows]

//user profiles
userImportance = [[impUser]]; //[Flows]
costImp = 15; //former willingness to pay is now inversely proportional value: cost importance 
 
